(set-info :origin "SVCOMP13 benchmarks generated by Arie Gurfinkel")
(set-info :status unsat)
(set-logic HORN)
(declare-fun cp-rel-entry () Bool)
(declare-fun cp-rel-__UFO__0
             (Real
              Real
              Real
              Real
              Real
              Real
              Real
              Real
              Real
              Real
              Real
              Real
              Real
              Real
              Real
              Real
              Real
              Real
              Real)
             Bool)
(declare-fun cp-rel-bb2.i.i.i.i130.i.i.i.i () Bool)
(declare-fun cp-rel-bb.i
             (Real
              Real
              Real
              Real
              Real
              Real
              Real
              Real
              Real
              Real
              Real
              Real
              Real
              Real
              Real
              Real
              Real
              Real
              Real)
             Bool)
(assert |cp-rel-entry|)
(assert (forall ((?A Real) (?B Real) (?C Real) (?D Real) (?E Real) (?F Real) (?G Real) (?H Real) (?I Real) (?J Real) (?K Real) (?L Real) (?M Real) (?N Real) (?O Real) (?P Real) (?Q Real) (?R Real) (?S Real) (?T Bool) )(let (($x871745 (|cp-rel-bb.i| ?A ?B ?C ?D ?E ?F ?G ?H ?I ?J ?K ?L ?M ?N ?O ?P ?Q ?R ?S)))
(let (($x871732 (= ?T true)))
(let (($x619013 (<= ?C 0.0)))
(let (($x852487 (>= ?C 0.0)))
(let (($x871991 (<= ?D 0.0)))
(let (($x576402 (>= ?D 0.0)))
(let (($x648950 (and |cp-rel-entry| (<= ?S 0.0) (>= ?R 0.0) (<= ?R 0.0) (>= ?Q 0.0) (<= ?Q 0.0) (>= ?P 0.0) (<= ?P 0.0) (>= ?O 0.0) (<= ?O 0.0) (>= ?N 456.0) (<= ?N 456.0) (>= ?M 123.0) (<= ?M 123.0) (>= ?L 0.0) (<= ?L 0.0) (>= ?K 0.0) (<= ?K 0.0) (>= ?J 0.0) (<= ?J 0.0) (>= ?I 0.0) (<= ?I 0.0) (>= ?H 0.0) (<= ?H 0.0) (>= ?G 0.0) (<= ?G 0.0) (>= ?F 0.0) (<= ?F 0.0) (>= ?E 0.0) (<= ?E 0.0) $x576402 $x871991 $x852487 $x619013 (>= ?B 0.0) (<= ?B 0.0) (>= ?A 0.0) (<= ?A 0.0) $x871732 (>= ?S 0.0))))
(=> $x648950 $x871745)))))))))
)
(assert (forall ((?A Real) (?B Real) (?C Real) (?D Real) (?E Real) (?F Real) (?G Real) (?H Real) (?I Real) (?J Real) (?K Real) (?L Real) (?M Real) (?N Real) (?O Real) (?P Real) (?Q Real) (?R Real) (?S Real) (?T Real) (?U Real) (?V Real) (?W Real) (?X Real) (?Y Real) (?Z Real) (?A1 Real) (?B1 Real) (?C1 Real) (?D1 Real) (?E1 Real) (?F1 Real) (?G1 Real) (?H1 Real) (?I1 Real) (?J1 Real) (?K1 Real) (?L1 Real) (?M1 Bool) (?N1 Bool) (?O1 Bool) (?P1 Bool) (?Q1 Bool) (?R1 Bool) (?S1 Bool) (?T1 Bool) (?U1 Bool) (?V1 Bool) (?W1 Bool) (?X1 Bool) (?Y1 Bool) (?Z1 Bool) (?A2 Bool) (?B2 Bool) (?C2 Bool) (?D2 Bool) (?E2 Bool) (?F2 Bool) (?G2 Bool) (?H2 Bool) (?I2 Bool) (?J2 Bool) (?K2 Bool) (?L2 Bool) (?M2 Bool) (?N2 Bool) (?O2 Bool) (?P2 Bool) (?Q2 Bool) (?R2 Bool) (?S2 Bool) (?T2 Bool) (?U2 Bool) (?V2 Bool) (?W2 Bool) (?X2 Bool) (?Y2 Bool) (?Z2 Bool) (?A3 Bool) (?B3 Bool) (?C3 Bool) (?D3 Bool) (?E3 Bool) (?F3 Bool) (?G3 Bool) (?H3 Bool) (?I3 Bool) (?J3 Bool) (?K3 Bool) (?L3 Bool) (?M3 Bool) (?N3 Bool) (?O3 Bool) (?P3 Bool) (?Q3 Bool) (?R3 Bool) (?S3 Bool) (?T3 Bool) (?U3 Bool) (?V3 Bool) (?W3 Bool) (?X3 Bool) (?Y3 Bool) (?Z3 Bool) (?A4 Bool) (?B4 Bool) (?C4 Bool) (?D4 Bool) (?E4 Bool) (?F4 Bool) (?G4 Bool) (?H4 Bool) (?I4 Bool) (?J4 Bool) (?K4 Bool) (?L4 Bool) (?M4 Bool) (?N4 Bool) (?O4 Real) (?P4 Real) (?Q4 Real) (?R4 Real) (?S4 Real) (?T4 Real) (?U4 Real) (?V4 Real) (?W4 Real) (?X4 Real) (?Y4 Real) (?Z4 Real) )(let (($x571107 (|cp-rel-bb.i| ?T ?U ?V ?W ?X ?Y ?Z ?A1 ?B1 ?C1 ?D1 ?E1 ?F1 ?G1 ?H1 ?I1 ?J1 ?K1 ?L1)))
(let (($x538246 (not ?U2)))
(let (($x610951 (or $x538246 ?V2)))
(let (($x757985 (not ?I3)))
(let (($x611029 (or $x757985 ?J3)))
(let (($x852078 (not ?P3)))
(let (($x570722 (or $x852078 ?Q3)))
(let (($x120282 (not ?S3)))
(let (($x852564 (or $x120282 (and ?T3 (not ?V3)) (and ?V3 (not ?T3)))))
(let (($x363229 (not ?W3)))
(let (($x315559 (or $x363229 ?X3)))
(let (($x722173 (not ?D4)))
(let (($x871727 (or $x722173 ?E4)))
(let (($x250834 (>= ?K1 ?R)))
(let (($x127540 (<= ?K1 ?R)))
(let (($x488900 (>= ?J1 ?Q)))
(let (($x534061 (<= ?J1 ?Q)))
(let (($x361973 (>= ?G1 ?N)))
(let (($x436961 (<= ?G1 ?N)))
(let (($x648875 (>= ?F1 ?M)))
(let (($x369383 (<= ?F1 ?M)))
(let (($x440398 (>= ?E1 ?L)))
(let (($x260930 (<= ?E1 ?L)))
(let (($x514004 (>= ?D1 ?K)))
(let (($x721925 (<= ?D1 ?K)))
(let (($x368271 (>= ?C1 ?J)))
(let (($x514030 (<= ?C1 ?J)))
(let (($x343032 (>= ?B1 ?I)))
(let (($x648868 (<= ?B1 ?I)))
(let (($x642020 (>= ?A1 ?H)))
(let (($x642021 (<= ?A1 ?H)))
(let (($x269031 (>= ?Z ?G)))
(let (($x162825 (<= ?Z ?G)))
(let (($x611026 (>= ?Y ?F)))
(let (($x375383 (<= ?Y ?F)))
(let (($x570157 (>= ?X ?E)))
(let (($x701170 (<= ?X ?E)))
(let (($x570703 (>= ?W ?D)))
(let (($x252930 (<= ?W ?D)))
(let (($x514128 (>= ?V ?C)))
(let (($x211860 (<= ?V ?C)))
(let (($x326975 (>= ?U ?B)))
(let (($x437895 (<= ?U ?B)))
(let (($x255486 (>= ?T ?O4)))
(let (($x495990 (<= ?T ?O4)))
(let (($x242742 (and ?X1 $x495990 $x255486 $x437895 $x326975 $x211860 $x514128 $x252930 $x570703 $x701170 $x570157 $x375383 $x611026 $x162825 $x269031 $x642021 $x642020 $x648868 $x343032 $x514030 $x368271 $x721925 $x514004 $x260930 $x440398 $x369383 $x648875 $x436961 $x361973 (<= ?H1 2.0) (>= ?H1 2.0) (<= ?I1 456.0) (>= ?I1 456.0) $x534061 $x488900 $x127540 $x250834 (<= ?L1 1.0) (>= ?L1 1.0))))
(let (($x282539 (>= ?L1 ?S)))
(let (($x570137 (<= ?L1 ?S)))
(let (($x577050 (>= ?I1 ?P)))
(let (($x487670 (<= ?I1 ?P)))
(let (($x871947 (>= ?H1 ?O)))
(let (($x273829 (<= ?H1 ?O)))
(let (($x722062 (and ?Z1 (not ?E2) $x495990 $x255486 $x437895 $x326975 $x211860 $x514128 $x252930 $x570703 $x701170 $x570157 $x375383 $x611026 $x162825 $x269031 $x642021 $x642020 $x648868 $x343032 $x514030 $x368271 $x721925 $x514004 $x260930 $x440398 $x369383 $x648875 $x436961 $x361973 $x273829 $x871947 $x487670 $x577050 $x534061 $x488900 (<= ?K1 1.0) (>= ?K1 1.0) $x570137 $x282539)))
(let (($x312035 (not ?L2)))
(let (($x273950 (and ?G2 $x312035 $x495990 $x255486 $x437895 $x326975 $x211860 $x514128 $x252930 $x570703 $x701170 $x570157 $x375383 $x611026 $x162825 $x269031 $x642021 $x642020 $x648868 $x343032 $x514030 $x368271 $x721925 $x514004 $x260930 $x440398 $x369383 $x648875 (<= ?G1 0.0) (>= ?G1 0.0) $x273829 $x871947 $x487670 $x577050 (<= ?J1 1.0) (>= ?J1 1.0) $x127540 $x250834 $x570137 $x282539)))
(let (($x24349 (not ?S2)))
(let (($x770656 (and ?N2 $x24349 $x495990 $x255486 $x437895 $x326975 $x211860 $x514128 $x252930 $x570703 $x701170 $x570157 $x375383 $x611026 $x162825 $x269031 $x642021 $x642020 (<= ?B1 1.0) (>= ?B1 1.0) $x514030 $x368271 $x721925 $x514004 $x260930 $x440398 $x369383 $x648875 $x436961 $x361973 $x273829 $x871947 $x487670 $x577050 $x534061 $x488900 $x127540 $x250834 $x570137 $x282539)))
(let (($x648739 (and ?U2 (not ?Z2) $x495990 $x255486 $x437895 $x326975 $x211860 $x514128 $x252930 $x570703 $x701170 $x570157 $x375383 $x611026 $x162825 $x269031 (<= ?A1 1.0) (>= ?A1 1.0) $x648868 $x343032 $x514030 $x368271 $x721925 $x514004 $x260930 $x440398 $x369383 $x648875 $x436961 $x361973 $x273829 $x871947 $x487670 $x577050 $x534061 $x488900 $x127540 $x250834 $x570137 $x282539)))
(let (($x852755 (and ?B3 (not ?G3) $x495990 $x255486 $x437895 $x326975 $x211860 $x514128 $x252930 $x570703 $x701170 $x570157 $x375383 $x611026 (<= ?Z 1.0) (>= ?Z 1.0) $x642021 $x642020 $x648868 $x343032 $x514030 $x368271 $x721925 $x514004 $x260930 $x440398 $x369383 $x648875 $x436961 $x361973 $x273829 $x871947 $x487670 $x577050 $x534061 $x488900 $x127540 $x250834 $x570137 $x282539)))
(let (($x209292 (not ?N3)))
(let (($x866968 (and ?I3 $x209292 $x495990 $x255486 $x437895 $x326975 $x211860 $x514128 $x252930 $x570703 $x701170 $x570157 (<= ?Y 1.0) (>= ?Y 1.0) $x162825 $x269031 $x642021 $x642020 $x648868 $x343032 $x514030 $x368271 $x721925 $x514004 $x260930 $x440398 $x369383 $x648875 (<= ?G1 666.0) (>= ?G1 666.0) $x273829 $x871947 $x487670 $x577050 $x534061 $x488900 $x127540 $x250834 $x570137 $x282539)))
(let (($x520841 (not ?U3)))
(let (($x852221 (and ?P3 $x520841 $x495990 $x255486 $x437895 $x326975 $x211860 $x514128 $x252930 $x570703 (<= ?X 1.0) (>= ?X 1.0) $x375383 $x611026 $x162825 $x269031 $x642021 $x642020 $x648868 $x343032 (<= ?C1 1.0) (>= ?C1 1.0) (<= ?D1 2.0) (>= ?D1 2.0) (<= ?E1 3.0) (>= ?E1 3.0) $x369383 $x648875 $x436961 $x361973 $x273829 $x871947 $x487670 $x577050 $x534061 $x488900 $x127540 $x250834 $x570137 $x282539)))
(let (($x521206 (not ?B4)))
(let (($x595907 (and ?W3 $x521206 $x495990 $x255486 $x437895 $x326975 $x211860 $x514128 (<= ?W 1.0) (>= ?W 1.0) $x701170 $x570157 $x375383 $x611026 $x162825 $x269031 $x642021 $x642020 $x648868 $x343032 $x514030 $x368271 $x721925 $x514004 $x260930 $x440398 $x369383 $x648875 $x436961 $x361973 $x273829 $x871947 $x487670 $x577050 $x534061 $x488900 $x127540 $x250834 $x570137 $x282539)))
(let (($x514205 (and ?D4 (not ?I4) $x495990 $x255486 $x437895 $x326975 (<= ?V 1.0) (>= ?V 1.0) $x252930 $x570703 $x701170 $x570157 $x375383 $x611026 $x162825 $x269031 $x642021 $x642020 $x648868 $x343032 $x514030 $x368271 $x721925 $x514004 $x260930 $x440398 (<= ?F1 777.0) (>= ?F1 777.0) $x436961 $x361973 $x273829 $x871947 $x487670 $x577050 $x534061 $x488900 $x127540 $x250834 $x570137 $x282539)))
(let (($x701145 (not ?N4)))
(let (($x520554 (and ?K4 $x701145 $x495990 $x255486 (<= ?U 1.0) (>= ?U 1.0) $x211860 $x514128 $x252930 $x570703 $x701170 $x570157 $x375383 $x611026 $x162825 $x269031 $x642021 $x642020 $x648868 $x343032 $x514030 $x368271 $x721925 $x514004 $x260930 $x440398 $x369383 $x648875 $x436961 $x361973 $x273829 $x871947 $x487670 $x577050 $x534061 $x488900 $x127540 $x250834 $x570137 $x282539)))
(let (($x532790 (|cp-rel-bb.i| ?A ?B ?C ?D ?E ?F ?G ?H ?I ?J ?K ?L ?M ?N ?O ?P ?Q ?R ?S)))
(let (($x615324 (and $x532790 (= ?M4 (= ?B 0.0)) (= ?I4 (= ?Y4 0.0)) (= ?F4 (= ?C 0.0)) (= ?B4 (= ?X4 0.0)) (= ?Y3 (= ?D 0.0)) (= ?U3 (= ?W4 0.0)) (= ?R3 (= ?E 0.0)) (= ?N3 (= ?V4 0.0)) (= ?K3 (= ?F 0.0)) (= ?G3 (= ?U4 0.0)) (= ?D3 (= ?G 0.0)) (= ?Z2 (= ?T4 0.0)) (= ?W2 (= ?H 0.0)) (= ?S2 (= ?S4 0.0)) (= ?P2 (= ?I 0.0)) (= ?L2 (= ?R4 0.0)) (= ?I2 (= ?Q 0.0)) (= ?E2 (= ?Q4 0.0)) (= ?B2 (= ?R 0.0)) (= ?V1 (= ?P4 0.0)) (= ?S1 (= ?S 0.0)) (= ?O4 (+ 1.0 ?A)) (= ?P1 (not (<= ?A 3.0))) (or $x520554 $x514205 $x595907 $x852221 $x866968 $x852755 $x648739 $x770656 $x273950 $x722062 $x242742) (or (not ?K4) ?L4) (or (not ?K4) (and ?G4 ?L4 ?M4)) (or (not ?G4) (and ?H4 (not ?J4)) (and ?J4 (not ?H4))) (or (not ?G4) (and ?D4 ?H4 ?I4) (and ?Z3 ?J4 (not ?F4))) $x871727 (or $x722173 (and ?Z3 ?E4 ?F4)) (or (not ?Z3) (and ?A4 (not ?C4)) (and ?C4 (not ?A4))) (or (not ?Z3) (and ?W3 ?A4 ?B4) (and ?S3 ?C4 (not ?Y3))) $x315559 (or $x363229 (and ?S3 ?X3 ?Y3)) $x852564 (or $x120282 (and ?P3 ?T3 ?U3) (and ?L3 ?V3 (not ?R3))) $x570722 (or $x852078 (and ?L3 ?Q3 ?R3)) (or (not ?L3) (and ?M3 (not ?O3)) (and ?O3 (not ?M3))) (or (not ?L3) (and ?I3 ?M3 ?N3) (and ?E3 ?O3 (not ?K3))) $x611029 (or $x757985 (and ?E3 ?J3 ?K3)) (or (not ?E3) (and ?F3 (not ?H3)) (and ?H3 (not ?F3))) (or (not ?E3) (and ?B3 ?F3 ?G3) (and ?X2 ?H3 (not ?D3))) (or (not ?B3) ?C3) (or (not ?B3) (and ?X2 ?C3 ?D3)) (or (not ?X2) (and ?Y2 (not ?A3)) (and ?A3 (not ?Y2))) (or (not ?X2) (and ?U2 ?Y2 ?Z2) (and ?Q2 ?A3 (not ?W2))) $x610951 (or $x538246 (and ?Q2 ?V2 ?W2)) (or (not ?Q2) (and ?R2 (not ?T2)) (and ?T2 (not ?R2))) (or (not ?Q2) (and ?N2 ?R2 ?S2) (and ?J2 ?T2 (not ?P2))) (or (not ?N2) ?O2) (or (not ?N2) (and ?J2 ?O2 ?P2)) (or (not ?J2) (and ?K2 (not ?M2)) (and ?M2 (not ?K2))) (or (not ?J2) (and ?G2 ?K2 ?L2) (and ?C2 ?M2 (not ?I2))) (or (not ?G2) ?H2) (or (not ?G2) (and ?C2 ?H2 ?I2)) (or (not ?C2) (and ?D2 (not ?F2)) (and ?F2 (not ?D2))) (or (not ?C2) (and ?Z1 ?D2 ?E2) (and ?T1 ?F2 (not ?B2))) (or (not ?Z1) ?A2) (or (not ?Z1) (and ?T1 ?A2 ?B2)) (or (not ?X1) ?Y1) (or (not ?X1) (and ?Q1 ?Y1 (not ?V1))) (or (not ?T1) (and ?U1 (not ?W1)) (and ?W1 (not ?U1))) (or (not ?T1) (and ?Q1 ?U1 ?V1) (and ?M1 ?W1 (not ?S1))) (or (not ?Q1) ?R1) (or (not ?Q1) (and ?M1 ?R1 ?S1)) (or (not ?M1) ?O1) (or (not ?M1) (and ?N1 ?O1 (not ?P1))) (= ?N4 (= ?Z4 0.0)))))
(=> $x615324 $x571107))))))))))))))))))))))))))))))))))))))))))))))))))))))))))))))))))))))))
)
(assert (forall ((?A Real) (?B Real) (?C Real) (?D Real) (?E Real) (?F Real) (?G Real) (?H Real) (?I Real) (?J Real) (?K Real) (?L Real) (?M Real) (?N Real) (?O Real) (?P Real) (?Q Real) (?R Real) (?S Real) (?T Bool) (?U Bool) (?V Bool) (?W Bool) (?X Bool) (?Y Bool) (?Z Bool) (?A1 Bool) (?B1 Bool) (?C1 Bool) (?D1 Bool) (?E1 Bool) (?F1 Bool) (?G1 Bool) (?H1 Bool) (?I1 Bool) (?J1 Bool) (?K1 Bool) (?L1 Bool) (?M1 Bool) (?N1 Bool) (?O1 Bool) (?P1 Bool) (?Q1 Bool) (?R1 Bool) (?S1 Bool) (?T1 Bool) (?U1 Bool) (?V1 Bool) (?W1 Bool) (?X1 Bool) (?Y1 Bool) (?Z1 Bool) (?A2 Bool) (?B2 Bool) (?C2 Bool) (?D2 Bool) (?E2 Bool) (?F2 Bool) (?G2 Bool) (?H2 Bool) (?I2 Bool) (?J2 Bool) (?K2 Bool) (?L2 Bool) (?M2 Bool) (?N2 Bool) (?O2 Bool) (?P2 Bool) (?Q2 Bool) (?R2 Bool) (?S2 Bool) (?T2 Bool) (?U2 Bool) (?V2 Bool) (?W2 Bool) (?X2 Bool) (?Y2 Bool) (?Z2 Bool) (?A3 Bool) (?B3 Bool) (?C3 Bool) (?D3 Bool) (?E3 Bool) (?F3 Bool) (?G3 Bool) (?H3 Bool) (?I3 Bool) (?J3 Bool) (?K3 Bool) (?L3 Bool) (?M3 Bool) (?N3 Bool) (?O3 Bool) (?P3 Bool) (?Q3 Bool) (?R3 Bool) (?S3 Bool) (?T3 Real) (?U3 Real) (?V3 Real) (?W3 Real) (?X3 Real) (?Y3 Real) (?Z3 Real) (?A4 Real) (?B4 Real) (?C4 Real) (?D4 Real) (?E4 Real) (?F4 Bool) (?G4 Bool) (?H4 Bool) (?I4 Bool) (?J4 Bool) (?K4 Bool) (?L4 Bool) (?M4 Bool) (?N4 Bool) (?O4 Bool) (?P4 Bool) (?Q4 Bool) (?R4 Bool) (?S4 Bool) (?T4 Bool) (?U4 Bool) (?V4 Bool) (?W4 Bool) (?X4 Bool) (?Y4 Bool) (?Z4 Bool) (?A5 Bool) (?B5 Bool) (?C5 Bool) (?D5 Bool) (?E5 Bool) (?F5 Bool) (?G5 Bool) (?H5 Bool) (?I5 Bool) (?J5 Bool) (?K5 Bool) (?L5 Bool) (?M5 Bool) (?N5 Bool) (?O5 Bool) (?P5 Bool) (?Q5 Bool) (?R5 Bool) (?S5 Bool) (?T5 Real) (?U5 Bool) (?V5 Bool) (?W5 Bool) (?X5 Bool) (?Y5 Bool) (?Z5 Bool) (?A6 Bool) (?B6 Bool) (?C6 Bool) (?D6 Bool) (?E6 Bool) (?F6 Real) (?G6 Real) (?H6 Bool) (?I6 Real) (?J6 Real) (?K6 Bool) (?L6 Bool) (?M6 Bool) (?N6 Bool) (?O6 Bool) (?P6 Bool) (?Q6 Bool) (?R6 Bool) (?S6 Bool) (?T6 Bool) (?U6 Bool) (?V6 Bool) (?W6 Bool) (?X6 Bool) (?Y6 Bool) (?Z6 Bool) (?A7 Bool) (?B7 Bool) (?C7 Bool) (?D7 Bool) (?E7 Bool) (?F7 Bool) (?G7 Real) (?H7 Bool) (?I7 Bool) (?J7 Bool) (?K7 Bool) (?L7 Bool) (?M7 Bool) (?N7 Bool) (?O7 Bool) (?P7 Bool) (?Q7 Real) (?R7 Bool) (?S7 Bool) (?T7 Bool) (?U7 Bool) (?V7 Real) (?W7 Bool) (?X7 Bool) (?Y7 Bool) (?Z7 Bool) (?A8 Real) (?B8 Bool) (?C8 Real) (?D8 Real) (?E8 Bool) (?F8 Bool) )(let (($x155160 (|cp-rel-__UFO__0| ?A ?B ?C ?D ?E ?F ?G ?H ?I ?J ?K ?L ?M ?N ?O ?P ?Q ?R ?S)))
(let (($x299968 (or (not ?F4) (and ?P3 ?G4 ?S3) (and ?L3 ?H4 (not ?R3)) (and ?U ?I4 ?W))))
(let (($x871750 (or (not ?F4) (and ?G4 (not ?H4) (not ?I4)) (and ?H4 (not ?G4) (not ?I4)) (and ?I4 (not ?G4) (not ?H4)))))
(let (($x229112 (not ?Z4)))
(let (($x101678 (or $x229112 ?A5)))
(let (($x721690 (not ?G5)))
(let (($x156091 (or $x721690 ?H5)))
(let (($x610876 (not ?J5)))
(let (($x312035 (not ?R5)))
(let (($x318272 (or $x312035 (and ?N5 ?S5 (<= ?T5 0.0) (>= ?T5 0.0)) (and ?G5 ?U5 (<= ?T5 789.0) (>= ?T5 789.0)) (and ?R4 ?V5 ?Q5 (<= ?T5 ?M) (>= ?T5 ?M)) (and ?B5 ?W5 ?L5 (<= ?T5 ?N) (>= ?T5 ?N)))))
(let (($x335396 (or $x312035 (and ?S5 (not ?U5) (not ?V5) (not ?W5)) (and ?U5 (not ?S5) (not ?V5) (not ?W5)) (and ?V5 (not ?S5) (not ?U5) (not ?W5)) (and ?W5 (not ?S5) (not ?U5) (not ?V5)))))
(let (($x538246 (not ?A6)))
(let (($x610951 (or $x538246 ?B6)))
(let (($x642188 (and ?R5 ?K6 ?Z5 (<= ?F6 ?I6) (>= ?F6 ?I6) (<= ?G6 ?J6) (>= ?G6 ?J6))))
(let (($x181848 (and ?X5 ?H6 ?C6 (<= ?F6 ?I6) (>= ?F6 ?I6) (<= ?G6 ?J6) (>= ?G6 ?J6))))
(let (($x571408 (and ?A6 ?E6 (<= ?F6 0.0) (>= ?F6 0.0) (<= ?G6 0.0) (>= ?G6 0.0))))
(let (($x155652 (not ?D6)))
(let (($x349614 (or $x155652 (and ?E6 (not ?H6) (not ?K6)) (and ?H6 (not ?E6) (not ?K6)) (and ?K6 (not ?E6) (not ?H6)))))
(let (($x757985 (not ?O6)))
(let (($x611029 (or $x757985 ?P6)))
(let (($x852078 (not ?V6)))
(let (($x570722 (or $x852078 ?W6)))
(let (($x120282 (not ?Y6)))
(let (($x852564 (or $x120282 (and ?Z6 (not ?B7)) (and ?B7 (not ?Z6)))))
(let (($x363229 (not ?C7)))
(let (($x315559 (or $x363229 ?D7)))
(let (($x198924 (not ?E7)))
(let (($x495866 (or $x198924 (and ?C7 ?F7 (<= ?G7 0.0) (>= ?G7 0.0)) (and ?V6 ?H7 (<= ?G7 ?N) (>= ?G7 ?N)) (and ?Q6 ?I7 ?A7 (<= ?G7 ?M) (>= ?G7 ?M)))))
(let (($x571416 (or $x198924 (and ?F7 (not ?H7) (not ?I7)) (and ?H7 (not ?F7) (not ?I7)) (and ?I7 (not ?F7) (not ?H7)))))
(let (($x722173 (not ?J7)))
(let (($x871727 (or $x722173 ?K7)))
(let (($x611224 (|cp-rel-bb.i| ?A ?B ?C ?D ?E ?F ?G ?H ?I ?J ?K ?L ?M ?N ?O ?P ?Q ?R ?S)))
(let (($x383787 (and $x611224 (= ?F8 (= ?C8 0.0)) (= ?E8 (= ?G7 0.0)) (= ?X6 (= ?K 2.0)) (= ?A7 (= ?K 1.0)) (= ?S6 (not (<= 2.0 ?K))) (= ?N6 (= ?I6 ?C8)) (= ?D8 (ite ?B8 ?G6 ?A8)) (= ?C8 (ite ?B8 ?F6 1.0)) (= ?B8 (= ?A8 0.0)) (= ?A8 (ite ?Z7 ?P 0.0)) (= ?Z7 (= ?K ?O)) (= ?C6 (or ?Y7 ?W7)) (= ?Y7 (or ?X7 ?U7)) (= ?X7 (not (= ?T5 ?J6))) (= ?Z5 (or ?W7 ?U7)) (= ?W7 (= ?T5 0.0)) (= ?I5 (= ?L 3.0)) (= ?L5 (= ?L 2.0)) (= ?D5 (not (<= 3.0 ?L))) (= ?Q5 (= ?L 1.0)) (= ?T4 (not (<= 2.0 ?L))) (= ?V7 (ite ?U7 1.0 0.0)) (= ?U7 (= ?J6 0.0)) (= ?J6 (ite ?T7 ?P 0.0)) (= ?T7 (= ?L ?O)) (= ?Q4 (or ?R7 ?S7)) (= ?S7 (= ?N 0.0)) (= ?R7 (= ?Q7 0.0)) (= ?Q7 (ite ?P7 ?P 0.0)) (= ?P7 (= ?O 2.0)) (= ?L4 (= ?J 0.0)) (= ?S3 (= ?E4 0.0)) (= ?R3 (= ?B 0.0)) (= ?N3 (= ?D4 0.0)) (= ?K3 (= ?C 0.0)) (= ?G3 (= ?C4 0.0)) (= ?D3 (= ?D 0.0)) (= ?Z2 (= ?B4 0.0)) (= ?W2 (= ?E 0.0)) (= ?S2 (= ?A4 0.0)) (= ?P2 (= ?F 0.0)) (= ?L2 (= ?Z3 0.0)) (= ?I2 (= ?G 0.0)) (= ?E2 (= ?Y3 0.0)) (= ?B2 (= ?H 0.0)) (= ?X1 (= ?X3 0.0)) (= ?U1 (= ?I 0.0)) (= ?Q1 (= ?W3 0.0)) (= ?N1 (= ?Q 0.0)) (= ?J1 (= ?V3 0.0)) (= ?G1 (= ?R 0.0)) (= ?C1 (= ?U3 0.0)) (= ?Z (= ?S 0.0)) (= ?T3 (+ 1.0 ?A)) (= ?W (not (<= ?A 3.0))) (or ?W4 ?M7) (or (not ?M7) (and ?N7 (not ?O7)) (and ?O7 (not ?N7))) (or (not ?M7) (and ?J7 ?N7) (and ?E7 ?O7 ?L7)) $x871727 (or $x722173 (and ?E7 ?K7 (not ?L7))) $x571416 $x495866 $x315559 (or $x363229 (and ?Y6 ?D7)) $x852564 (or $x120282 (and ?Q6 ?Z6 (not ?A7)) (and ?T6 ?B7 (not ?X6))) $x570722 (or $x852078 (and ?T6 ?W6 ?X6)) (or (not ?T6) ?U6) (or (not ?T6) (and ?O6 ?U6 (not ?S6))) (or (not ?Q6) ?R6) (or (not ?Q6) (and ?O6 ?R6 ?S6)) $x611029 (or $x757985 (and ?L6 ?P6)) (or (not ?L6) ?M6) (or (not ?L6) (and ?D6 ?M6 ?N6)) $x349614 (or $x155652 $x571408 $x181848 $x642188) $x610951 (or $x538246 (and ?X5 ?B6 (not ?C6))) (or (not ?X5) ?Y5) (or (not ?X5) (and ?R5 ?Y5 (not ?Z5))) $x335396 $x318272 (or (not ?N5) (and ?O5 (not ?P5)) (and ?P5 (not ?O5))) (or (not ?N5) (and ?J5 ?O5) (and ?R4 ?P5 (not ?Q5))) (or $x610876 (and ?K5 (not ?M5)) (and ?M5 (not ?K5))) (or $x610876 (and ?B5 ?K5 (not ?L5)) (and ?E5 ?M5 (not ?I5))) $x156091 (or $x721690 (and ?E5 ?H5 ?I5)) (or (not ?E5) ?F5) (or (not ?E5) (and ?Z4 ?F5 (not ?D5))) (or (not ?B5) ?C5) (or (not ?B5) (and ?Z4 ?C5 ?D5)) $x101678 (or $x229112 (and ?U4 ?A5)) (or (not ?W4) (and ?X4 (not ?Y4)) (and ?Y4 (not ?X4))) (or (not ?W4) (and ?O4 ?X4) (and ?J4 ?Y4 ?Q4)) (or (not ?U4) ?V4) (or (not ?U4) (and ?M4 ?V4 (not ?T4))) (or (not ?R4) ?S4) (or (not ?R4) (and ?M4 ?S4 ?T4)) (or (not ?O4) ?P4) (or (not ?O4) (and ?J4 ?P4 (not ?Q4))) (or (not ?M4) ?N4) (or (not ?M4) (and ?F4 ?N4 (not ?L4))) (or (not ?J4) ?K4) (or (not ?J4) (and ?F4 ?K4 ?L4)) $x871750 $x299968 (or (not ?P3) ?Q3) (or (not ?P3) (and ?L3 ?Q3 ?R3)) (or (not ?L3) (and ?M3 (not ?O3)) (and ?O3 (not ?M3))) (or (not ?L3) (and ?I3 ?M3 ?N3) (and ?E3 ?O3 (not ?K3))) (or (not ?I3) ?J3) (or (not ?I3) (and ?E3 ?J3 ?K3)) (or (not ?E3) (and ?F3 (not ?H3)) (and ?H3 (not ?F3))) (or (not ?E3) (and ?B3 ?F3 ?G3) (and ?X2 ?H3 (not ?D3))) (or (not ?B3) ?C3) (or (not ?B3) (and ?X2 ?C3 ?D3)) (or (not ?X2) (and ?Y2 (not ?A3)) (and ?A3 (not ?Y2))) (or (not ?X2) (and ?U2 ?Y2 ?Z2) (and ?Q2 ?A3 (not ?W2))) (or (not ?U2) ?V2) (or (not ?U2) (and ?Q2 ?V2 ?W2)) (or (not ?Q2) (and ?R2 (not ?T2)) (and ?T2 (not ?R2))) (or (not ?Q2) (and ?N2 ?R2 ?S2) (and ?J2 ?T2 (not ?P2))) (or (not ?N2) ?O2) (or (not ?N2) (and ?J2 ?O2 ?P2)) (or (not ?J2) (and ?K2 (not ?M2)) (and ?M2 (not ?K2))) (or (not ?J2) (and ?G2 ?K2 ?L2) (and ?C2 ?M2 (not ?I2))) (or (not ?G2) ?H2) (or (not ?G2) (and ?C2 ?H2 ?I2)) (or (not ?C2) (and ?D2 (not ?F2)) (and ?F2 (not ?D2))) (or (not ?C2) (and ?Z1 ?D2 ?E2) (and ?V1 ?F2 (not ?B2))) (or (not ?Z1) ?A2) (or (not ?Z1) (and ?V1 ?A2 ?B2)) (or (not ?V1) (and ?W1 (not ?Y1)) (and ?Y1 (not ?W1))) (or (not ?V1) (and ?S1 ?W1 ?X1) (and ?O1 ?Y1 (not ?U1))) (or (not ?S1) ?T1) (or (not ?S1) (and ?O1 ?T1 ?U1)) (or (not ?O1) (and ?P1 (not ?R1)) (and ?R1 (not ?P1))) (or (not ?O1) (and ?L1 ?P1 ?Q1) (and ?H1 ?R1 (not ?N1))) (or (not ?L1) ?M1) (or (not ?L1) (and ?H1 ?M1 ?N1)) (or (not ?H1) (and ?I1 (not ?K1)) (and ?K1 (not ?I1))) (or (not ?H1) (and ?E1 ?I1 ?J1) (and ?A1 ?K1 (not ?G1))) (or (not ?E1) ?F1) (or (not ?E1) (and ?A1 ?F1 ?G1)) (or (not ?A1) (and ?B1 (not ?D1)) (and ?D1 (not ?B1))) (or (not ?A1) (and ?X ?B1 ?C1) (and ?T ?D1 (not ?Z))) (or (not ?X) ?Y) (or (not ?X) (and ?T ?Y ?Z)) (or (not ?T) ?V) (or (not ?T) (and ?U ?V (not ?W))) (= ?L7 (or ?E8 ?F8)))))
(=> $x383787 $x155160)))))))))))))))))))))))))))))))))))
)
(assert (forall ((?A Real) (?B Real) (?C Real) (?D Real) (?E Real) (?F Real) (?G Real) (?H Real) (?I Real) (?J Real) (?K Real) (?L Real) (?M Real) (?N Real) (?O Real) (?P Real) (?Q Real) (?R Real) (?S Real) (?T Bool) )(let (($x357748 (|cp-rel-__UFO__0| ?A ?B ?C ?D ?E ?F ?G ?H ?I ?J ?K ?L ?M ?N ?O ?P ?Q ?R ?S)))
(=> (and $x357748 (= ?T true)) $x357748)))
)
(assert (forall ((?A Real) (?B Real) (?C Real) (?D Real) (?E Real) (?F Real) (?G Real) (?H Real) (?I Real) (?J Real) (?K Real) (?L Real) (?M Real) (?N Real) (?O Real) (?P Real) (?Q Real) (?R Real) (?S Real) (?T Bool) (?U Bool) (?V Bool) (?W Bool) (?X Bool) (?Y Bool) (?Z Bool) (?A1 Bool) (?B1 Bool) (?C1 Bool) (?D1 Bool) (?E1 Bool) (?F1 Bool) (?G1 Bool) (?H1 Bool) (?I1 Bool) (?J1 Bool) (?K1 Bool) (?L1 Bool) (?M1 Bool) (?N1 Bool) (?O1 Bool) (?P1 Bool) (?Q1 Bool) (?R1 Bool) (?S1 Bool) (?T1 Bool) (?U1 Bool) (?V1 Bool) (?W1 Bool) (?X1 Bool) (?Y1 Bool) (?Z1 Bool) (?A2 Bool) (?B2 Bool) (?C2 Bool) (?D2 Bool) (?E2 Bool) (?F2 Bool) (?G2 Bool) (?H2 Bool) (?I2 Bool) (?J2 Bool) (?K2 Bool) (?L2 Bool) (?M2 Bool) (?N2 Bool) (?O2 Bool) (?P2 Bool) (?Q2 Bool) (?R2 Bool) (?S2 Bool) (?T2 Bool) (?U2 Bool) (?V2 Bool) (?W2 Bool) (?X2 Bool) (?Y2 Bool) (?Z2 Bool) (?A3 Bool) (?B3 Bool) (?C3 Bool) (?D3 Bool) (?E3 Bool) (?F3 Bool) (?G3 Bool) (?H3 Bool) (?I3 Bool) (?J3 Bool) (?K3 Bool) (?L3 Bool) (?M3 Bool) (?N3 Bool) (?O3 Bool) (?P3 Bool) (?Q3 Bool) (?R3 Bool) (?S3 Bool) (?T3 Real) (?U3 Real) (?V3 Real) (?W3 Real) (?X3 Real) (?Y3 Real) (?Z3 Real) (?A4 Real) (?B4 Real) (?C4 Real) (?D4 Real) (?E4 Real) (?F4 Bool) (?G4 Bool) (?H4 Bool) (?I4 Bool) (?J4 Bool) (?K4 Bool) (?L4 Bool) (?M4 Bool) (?N4 Bool) (?O4 Bool) (?P4 Bool) (?Q4 Bool) (?R4 Bool) (?S4 Bool) (?T4 Bool) (?U4 Bool) (?V4 Bool) (?W4 Bool) (?X4 Bool) (?Y4 Bool) (?Z4 Bool) (?A5 Bool) (?B5 Bool) (?C5 Bool) (?D5 Bool) (?E5 Bool) (?F5 Bool) (?G5 Bool) (?H5 Bool) (?I5 Bool) (?J5 Bool) (?K5 Bool) (?L5 Real) (?M5 Bool) (?N5 Bool) (?O5 Bool) (?P5 Bool) (?Q5 Bool) (?R5 Bool) (?S5 Bool) (?T5 Bool) (?U5 Bool) (?V5 Bool) (?W5 Bool) (?X5 Real) (?Y5 Real) (?Z5 Bool) (?A6 Real) (?B6 Real) (?C6 Bool) (?D6 Bool) (?E6 Bool) (?F6 Bool) (?G6 Real) (?H6 Bool) (?I6 Bool) (?J6 Bool) (?K6 Bool) (?L6 Real) (?M6 Bool) (?N6 Real) (?O6 Real) )(let (($x229112 (not ?I3)))
(let (($x101678 (or $x229112 ?J3)))
(let (($x721690 (not ?P3)))
(let (($x156091 (or $x721690 ?Q3)))
(let (($x405559 (not ?F4)))
(let (($x622064 (or $x405559 (and ?P3 ?G4 ?S3) (and ?L3 ?H4 (not ?R3)) (and ?U ?I4 ?W))))
(let (($x570977 (or $x405559 (and ?G4 (not ?H4) (not ?I4)) (and ?H4 (not ?G4) (not ?I4)) (and ?I4 (not ?G4) (not ?H4)))))
(let (($x850257 (not ?B5)))
(let (($x520841 (not ?J5)))
(let (($x437490 (or $x520841 (and ?F5 ?K5 (<= ?L5 0.0) (>= ?L5 0.0)) (and ?Y4 ?M5 (<= ?L5 789.0) (>= ?L5 789.0)) (and ?M4 ?N5 ?I5 (<= ?L5 ?M) (>= ?L5 ?M)) (and ?T4 ?O5 ?D5 (<= ?L5 ?N) (>= ?L5 ?N)))))
(let (($x758045 (or $x520841 (and ?K5 (not ?M5) (not ?N5) (not ?O5)) (and ?M5 (not ?K5) (not ?N5) (not ?O5)) (and ?N5 (not ?K5) (not ?M5) (not ?O5)) (and ?O5 (not ?K5) (not ?M5) (not ?N5)))))
(let (($x722173 (not ?S5)))
(let (($x871727 (or $x722173 ?T5)))
(let (($x4110 (and ?J5 ?C6 ?R5 (<= ?X5 ?A6) (>= ?X5 ?A6) (<= ?Y5 ?B6) (>= ?Y5 ?B6))))
(let (($x576043 (and ?P5 ?Z5 ?U5 (<= ?X5 ?A6) (>= ?X5 ?A6) (<= ?Y5 ?B6) (>= ?Y5 ?B6))))
(let (($x576402 (>= ?Y5 0.0)))
(let (($x871991 (<= ?Y5 0.0)))
(let (($x852487 (>= ?X5 0.0)))
(let (($x619013 (<= ?X5 0.0)))
(let (($x386940 (not ?V5)))
(let (($x852713 (or $x386940 (and ?W5 (not ?Z5) (not ?C6)) (and ?Z5 (not ?W5) (not ?C6)) (and ?C6 (not ?W5) (not ?Z5)))))
(let (($x580099 (|cp-rel-bb.i| ?A ?B ?C ?D ?E ?F ?G ?H ?I ?J ?K ?L ?M ?N ?O ?P ?Q ?R ?S)))
(let (($x235731 (and $x580099 (= ?O6 (ite ?M6 ?Y5 ?L6)) (= ?N6 (ite ?M6 ?X5 1.0)) (= ?M6 (= ?L6 0.0)) (= ?L6 (ite ?K6 ?P 0.0)) (= ?K6 (= ?K ?O)) (= ?U5 (or ?J6 ?H6)) (= ?J6 (or ?I6 ?F6)) (= ?I6 (not (= ?L5 ?B6))) (= ?R5 (or ?H6 ?F6)) (= ?H6 (= ?L5 0.0)) (= ?A5 (= ?L 3.0)) (= ?D5 (= ?L 2.0)) (= ?V4 (not (<= 3.0 ?L))) (= ?I5 (= ?L 1.0)) (= ?O4 (not (<= 2.0 ?L))) (= ?G6 (ite ?F6 1.0 0.0)) (= ?F6 (= ?B6 0.0)) (= ?B6 (ite ?E6 ?P 0.0)) (= ?E6 (= ?L ?O)) (= ?J4 (= ?J 0.0)) (= ?S3 (= ?E4 0.0)) (= ?R3 (= ?B 0.0)) (= ?N3 (= ?D4 0.0)) (= ?K3 (= ?C 0.0)) (= ?G3 (= ?C4 0.0)) (= ?D3 (= ?D 0.0)) (= ?Z2 (= ?B4 0.0)) (= ?W2 (= ?E 0.0)) (= ?S2 (= ?A4 0.0)) (= ?P2 (= ?F 0.0)) (= ?L2 (= ?Z3 0.0)) (= ?I2 (= ?G 0.0)) (= ?E2 (= ?Y3 0.0)) (= ?B2 (= ?H 0.0)) (= ?X1 (= ?X3 0.0)) (= ?U1 (= ?I 0.0)) (= ?Q1 (= ?W3 0.0)) (= ?N1 (= ?Q 0.0)) (= ?J1 (= ?V3 0.0)) (= ?G1 (= ?R 0.0)) (= ?C1 (= ?U3 0.0)) (= ?Z (= ?S 0.0)) (= ?T3 (+ 1.0 ?A)) (= ?W (not (<= ?A 3.0))) (not (= ?D6 true)) (= ?V5 true) $x852713 (or $x386940 (and ?S5 ?W5 $x619013 $x852487 $x871991 $x576402) $x576043 $x4110) $x871727 (or $x722173 (and ?P5 ?T5 (not ?U5))) (or (not ?P5) ?Q5) (or (not ?P5) (and ?J5 ?Q5 (not ?R5))) $x758045 $x437490 (or (not ?F5) (and ?G5 (not ?H5)) (and ?H5 (not ?G5))) (or (not ?F5) (and ?B5 ?G5) (and ?M4 ?H5 (not ?I5))) (or $x850257 (and ?C5 (not ?E5)) (and ?E5 (not ?C5))) (or $x850257 (and ?T4 ?C5 (not ?D5)) (and ?W4 ?E5 (not ?A5))) (or (not ?Y4) ?Z4) (or (not ?Y4) (and ?W4 ?Z4 ?A5)) (or (not ?W4) ?X4) (or (not ?W4) (and ?R4 ?X4 (not ?V4))) (or (not ?T4) ?U4) (or (not ?T4) (and ?R4 ?U4 ?V4)) (or (not ?R4) ?S4) (or (not ?R4) (and ?P4 ?S4)) (or (not ?P4) ?Q4) (or (not ?P4) (and ?K4 ?Q4 (not ?O4))) (or (not ?M4) ?N4) (or (not ?M4) (and ?K4 ?N4 ?O4)) (or (not ?K4) ?L4) (or (not ?K4) (and ?F4 ?L4 (not ?J4))) $x570977 $x622064 $x156091 (or $x721690 (and ?L3 ?Q3 ?R3)) (or (not ?L3) (and ?M3 (not ?O3)) (and ?O3 (not ?M3))) (or (not ?L3) (and ?I3 ?M3 ?N3) (and ?E3 ?O3 (not ?K3))) $x101678 (or $x229112 (and ?E3 ?J3 ?K3)) (or (not ?E3) (and ?F3 (not ?H3)) (and ?H3 (not ?F3))) (or (not ?E3) (and ?B3 ?F3 ?G3) (and ?X2 ?H3 (not ?D3))) (or (not ?B3) ?C3) (or (not ?B3) (and ?X2 ?C3 ?D3)) (or (not ?X2) (and ?Y2 (not ?A3)) (and ?A3 (not ?Y2))) (or (not ?X2) (and ?U2 ?Y2 ?Z2) (and ?Q2 ?A3 (not ?W2))) (or (not ?U2) ?V2) (or (not ?U2) (and ?Q2 ?V2 ?W2)) (or (not ?Q2) (and ?R2 (not ?T2)) (and ?T2 (not ?R2))) (or (not ?Q2) (and ?N2 ?R2 ?S2) (and ?J2 ?T2 (not ?P2))) (or (not ?N2) ?O2) (or (not ?N2) (and ?J2 ?O2 ?P2)) (or (not ?J2) (and ?K2 (not ?M2)) (and ?M2 (not ?K2))) (or (not ?J2) (and ?G2 ?K2 ?L2) (and ?C2 ?M2 (not ?I2))) (or (not ?G2) ?H2) (or (not ?G2) (and ?C2 ?H2 ?I2)) (or (not ?C2) (and ?D2 (not ?F2)) (and ?F2 (not ?D2))) (or (not ?C2) (and ?Z1 ?D2 ?E2) (and ?V1 ?F2 (not ?B2))) (or (not ?Z1) ?A2) (or (not ?Z1) (and ?V1 ?A2 ?B2)) (or (not ?V1) (and ?W1 (not ?Y1)) (and ?Y1 (not ?W1))) (or (not ?V1) (and ?S1 ?W1 ?X1) (and ?O1 ?Y1 (not ?U1))) (or (not ?S1) ?T1) (or (not ?S1) (and ?O1 ?T1 ?U1)) (or (not ?O1) (and ?P1 (not ?R1)) (and ?R1 (not ?P1))) (or (not ?O1) (and ?L1 ?P1 ?Q1) (and ?H1 ?R1 (not ?N1))) (or (not ?L1) ?M1) (or (not ?L1) (and ?H1 ?M1 ?N1)) (or (not ?H1) (and ?I1 (not ?K1)) (and ?K1 (not ?I1))) (or (not ?H1) (and ?E1 ?I1 ?J1) (and ?A1 ?K1 (not ?G1))) (or (not ?E1) ?F1) (or (not ?E1) (and ?A1 ?F1 ?G1)) (or (not ?A1) (and ?B1 (not ?D1)) (and ?D1 (not ?B1))) (or (not ?A1) (and ?X ?B1 ?C1) (and ?T ?D1 (not ?Z))) (or (not ?X) ?Y) (or (not ?X) (and ?T ?Y ?Z)) (or (not ?T) ?V) (or (not ?T) (and ?U ?V (not ?W))) (= ?D6 (= ?A6 ?N6)))))
(=> $x235731 |cp-rel-bb2.i.i.i.i130.i.i.i.i|)))))))))))))))))))))))))
)
(assert (not cp-rel-bb2.i.i.i.i130.i.i.i.i))
(check-sat)
